20	38
0	2	90
0	3	46
0	13	27
1	5	93
1	6	71
1	11	14
2	6	24
2	9	40
2	11	34
2	14	26
3	6	81
3	17	49
3	18	87
4	7	23
4	9	68
4	10	15
4	11	30
4	15	14
4	16	36
4	19	41
5	15	94
5	17	21
6	8	49
6	17	14
6	19	75
7	8	20
8	14	63
8	15	46
8	17	73
9	11	59
9	12	39
9	17	28
10	11	48
10	18	26
13	14	19
14	19	2
15	19	97
18	19	41
